************************************************************************
file with basedata            : md348_.bas
initial value random generator: 1990190123
************************************************************************
projects                      :  1
jobs (incl. supersource/sink ):  22
horizon                       :  153
RESOURCES
  - renewable                 :  2   R
  - nonrenewable              :  2   N
  - doubly constrained        :  0   D
************************************************************************
PROJECT INFORMATION:
pronr.  #jobs rel.date duedate tardcost  MPM-Time
    1     20      0       22        2       22
************************************************************************
PRECEDENCE RELATIONS:
jobnr.    #modes  #successors   successors
   1        1          3           2   3   4
   2        3          3           5   6  14
   3        3          3          12  16  20
   4        3          2          15  17
   5        3          3           7  17  18
   6        3          3           8   9  10
   7        3          3          11  13  21
   8        3          3          13  15  18
   9        3          2          13  17
  10        3          2          16  20
  11        3          2          12  20
  12        3          1          15
  13        3          1          16
  14        3          2          18  21
  15        3          1          19
  16        3          1          19
  17        3          1          21
  18        3          1          19
  19        3          1          22
  20        3          1          22
  21        3          1          22
  22        1          0        
************************************************************************
REQUESTS/DURATIONS:
jobnr. mode duration  R 1  R 2  N 1  N 2
------------------------------------------------------------------------
  1      1     0       0    0    0    0
  2      1     4       0   10    7    0
         2     5       7    0    0    2
         3     6       5    0    7    0
  3      1     4       5    0    0    3
         2     5       0    6    5    0
         3    10       2    0    3    0
  4      1     2       0    8    0    2
         2     3       0    6    6    0
         3    10       0    2    5    0
  5      1     9       0    9    6    0
         2     9       3    0    6    0
         3    10       3    0    0   10
  6      1     7       0    3    8    0
         2     9       0    3    5    0
         3     9       0    2    0    4
  7      1     1       0    2    7    0
         2     2       2    0    0   10
         3     5       2    0    0    8
  8      1     4       0    4    0    4
         2     4       0    4    4    0
         3     8       9    0    4    0
  9      1     1       4    0    5    0
         2     3       0    6    0    5
         3     9       0    5    0    5
 10      1     1       4    0    6    0
         2     2       3    0    5    0
         3    10       3    0    3    0
 11      1     4       0    5    0    5
         2     5       8    0    0    4
         3     9       0    5    7    0
 12      1     1      10    0    3    0
         2     1       0    5    0    9
         3     3       8    0    0    9
 13      1     2       0    4    7    0
         2     4       8    0    7    0
         3     5       7    0    7    0
 14      1     4       8    0    0    7
         2     4       6    0    0    8
         3     7       1    0    6    0
 15      1     2       2    0    3    0
         2     5       2    0    0    4
         3    10       1    0    0    4
 16      1     3       0   10    0    3
         2     5       5    0    6    0
         3     5       0    9    0    2
 17      1     1       0    9    0   10
         2     3       0    7    0    9
         3     3       0    7    7    0
 18      1     2       0   10    0    8
         2     3       6    0    2    0
         3     9       5    0    0    8
 19      1     1       0    2    0    7
         2     5      10    0    0    7
         3     8       0    1    2    0
 20      1     3       0   10    0    7
         2     7       0    7    0    4
         3     7       0    6    7    0
 21      1     3       5    0    8    0
         2     6       5    0    7    0
         3    10       4    0    7    0
 22      1     0       0    0    0    0
************************************************************************
RESOURCEAVAILABILITIES:
  R 1  R 2  N 1  N 2
   24   25  112  101
************************************************************************
MAXIMAL LAGS:
from  to  type  delay
    1   22   ES      0
    1    2   ES      0
    2   22   ES      0
    1    3   ES      0
    3   22   ES      0
    1    4   ES      0
    4   22   ES      0
    1    5   ES      0
    5   22   ES      0
    1    6   ES      0
    6   22   ES      0
    1    7   ES      0
    7   22   ES      0
    1    8   ES      0
    8   22   ES      0
    1    9   ES      0
    9   22   ES      0
    1   10   ES      0
   10   22   ES      0
    1   11   ES      0
   11   22   ES      0
    1   12   ES      0
   12   22   ES      0
    1   13   ES      0
   13   22   ES      0
    1   14   ES      0
   14   22   ES      0
    1   15   ES      0
   15   22   ES      0
    1   16   ES      0
   16   22   ES      0
    1   17   ES      0
   17   22   ES      0
    1   18   ES      0
   18   22   ES      0
    1   19   ES      0
   19   22   ES      0
    1   20   ES      0
   20   22   ES      0
    1   21   ES      0
   21   22   ES      0
    1   22   ES      0
    2    5   SS     -7
    2    5   SE     -9
    2    5   ES     10
    2    5   EE     -6
    2    6   SS    -12
    2    6   SE    -12
    2    6   ES      6
    2    6   EE      1
    2   14   SS     -7
    2   14   SE     -1
    2   14   ES      5
    2   14   EE      4
    3   12   SS      9
    3   12   SE     -1
    3   12   ES      2
    3   12   EE      1
    3   16   SS     10
    3   16   SE      1
    3   16   ES      7
    3   16   EE     -4
    3   20   SS      3
    3   20   SE    -12
    3   20   ES     -6
    3   20   EE     -9
    4   15   SS      5
    4   15   SE    -12
    4   15   ES     -2
    4   15   EE     -6
    4   17   SS      9
    4   17   SE     12
    4   17   ES     -6
    4   17   EE      7
    5    7   SS      0
    5    7   SE     -7
    5    7   ES      2
    5    7   EE     -4
    5   17   SS      1
    5   17   SE      0
    5   17   ES      1
    5   17   EE     -8
    5   18   SS    -10
    5   18   SE     -1
    5   18   ES      6
    5   18   EE    -10
    6    8   SS      4
    6    8   SE     -5
    6    8   ES     -8
    6    8   EE     10
    6    9   SS      3
    6    9   SE    -12
    6    9   ES    -11
    6    9   EE    -11
    6   10   SS     -4
    6   10   SE      0
    6   10   ES      1
    6   10   EE      1
    7   11   SS     -9
    7   11   SE     -3
    7   11   ES     -2
    7   11   EE      8
    7   13   SS      6
    7   13   SE    -12
    7   13   ES     12
    7   13   EE    -10
    7   21   SS     -9
    7   21   SE    -11
    7   21   ES      2
    7   21   EE      6
    8   13   SS      3
    8   13   SE      9
    8   13   ES      2
    8   13   EE     -9
    8   15   SS     -4
    8   15   SE    -11
    8   15   ES    -12
    8   15   EE     11
    8   18   SS      8
    8   18   SE     -4
    8   18   ES      6
    8   18   EE     -5
    9   13   SS      5
    9   13   SE     12
    9   13   ES      5
    9   13   EE    -10
    9   17   SS     10
    9   17   SE      6
    9   17   ES     12
    9   17   EE     10
   10   16   SS     10
   10   16   SE      8
   10   16   ES     10
   10   16   EE     -4
   10   20   SS      6
   10   20   SE    -12
   10   20   ES     -2
   10   20   EE     -5
   11   12   SS      9
   11   12   SE     10
   11   12   ES    -10
   11   12   EE     -2
   11   20   SS     -7
   11   20   SE    -11
   11   20   ES     -4
   11   20   EE      7
   12   15   SS      7
   12   15   SE      4
   12   15   ES    -11
   12   15   EE      6
   13   16   SS     -3
   13   16   SE      8
   13   16   ES      7
   13   16   EE      3
   14   18   SS      0
   14   18   SE      7
   14   18   ES      4
   14   18   EE      3
   14   21   SS      8
   14   21   SE     -5
   14   21   ES      8
   14   21   EE    -10
   15   19   SS     -6
   15   19   SE      2
   15   19   ES      6
   15   19   EE      2
   16   19   SS      9
   16   19   SE     -9
   16   19   ES      1
   16   19   EE      0
   17   21   SS      7
   17   21   SE      5
   17   21   ES     11
   17   21   EE     -3
   18   19   SS     -9
   18   19   SE      1
   19   18   SE      0
   18   19   ES      0
   18   19   EE     -9
************************************************************************
